Maximize
score: + 3379 c0 + 204 c1 + 860 c2 + 478 c3 + 645 c4 + 22 c5 + 230 c6 + 384 c7 + 21 c8 + 333 c9 + 13 c10 + 183 c11 + 400 c12

Subject To
index_0: 1 s6 + 1 s21 + 2 s23 + 1 s28 + 1 s29 + 1 s32 + 1 s35 + 1 s37 + 2 s40 + 1 s41 - c0 >= 0
index_1: 1 s0 + 1 s13 + 1 s20 + 1 s21 + 1 s22 + 1 s23 + 1 s24 + 1 s26 + 1 s27 + 1 s28 + 1 s29 + 1 s30 + 1 s31 + 1 s32 + 1 s34 + 1 s36 + 1 s38 + 1 s40 + 1 s41 + 1 s42 - c1 >= 0
index_2: 29 s0 + 21 s1 + 13 s2 + 3 s3 + 9 s5 + 3 s16 + 1 s26 + 1 s37 + 1 s38 + 1 s39 + 1 s42 - c2 >= 0
index_3: 1 s3 + 1 s5 + 1 s6 + 1 s7 + 1 s8 + 1 s9 + 1 s10 + 1 s11 + 1 s12 + 1 s14 + 1 s15 + 1 s16 + 1 s17 + 1 s19 + 1 s33 - c3 >= 0
index_4: 6 s9 + 2 s27 + 1 s28 + 2 s29 + 1 s30 - c4 >= 0
index_5: 1 s23 + 1 s26 + 1 s27 + 2 s29 + 1 s32 + 1 s34 + 1 s35 + 1 s37 + 1 s40 - c5 >= 0
index_6: 1 s15 + 1 s17 + 1 s18 + 2 s20 + 1 s23 + 1 s24 + 1 s27 + 1 s28 + 1 s30 + 1 s32 + 1 s34 - c6 >= 0
index_7: 9 s12 - c7 >= 0
index_8: 1 s12 + 1 s13 + 1 s16 + 1 s17 + 1 s19 + 1 s20 + 1 s22 + 1 s23 + 2 s24 + 1 s25 + 2 s26 + 1 s27 + 2 s28 + 1 s29 + 1 s31 + 1 s34 + 1 s36 + 1 s37 + 1 s40 + 1 s41 + 1 s42 - c8 >= 0
index_9: 6 s19 - c9 >= 0
index_10: 2 s8 + 1 s9 + 2 s14 + 1 s17 + 6 s19 - c10 >= 0
index_11: 1 s19 + 1 s20 + 1 s23 + 1 s25 + 1 s26 + 1 s27 + 1 s28 + 1 s29 + 1 s30 + 1 s31 + 1 s32 + 1 s35 + 2 s37 + 1 s41 + 1 s42 - c11 >= 0
length: 160 s0 + 118 s1 + 65 s2 + 97 s3 + 16 s4 + 88 s5 + 153 s6 + 17 s7 + 104 s8 + 112 s9 + 38 s10 + 93 s11 + 129 s12 + 57 s13 + 80 s14 + 14 s15 + 225 s16 + 106 s17 + 16 s18 + 296 s19 + 188 s20 + 233 s21 + 158 s22 + 126 s23 + 108 s24 + 46 s25 + 110 s26 + 97 s27 + 124 s28 + 113 s29 + 108 s30 + 98 s31 + 102 s32 + 11 s33 + 77 s34 + 35 s35 + 108 s36 + 105 s37 + 72 s38 + 27 s39 + 59 s40 + 77 s41 + 127 s42 <= 2146



Binary
c0
c1
c2
c3
c4
c5
c6
c7
c8
c9
c10
c11
c12
s0
s1
s2
s3
s4
s5
s6
s7
s8
s9
s10
s11
s12
s13
s14
s15
s16
s17
s18
s19
s20
s21
s22
s23
s24
s25
s26
s27
s28
s29
s30
s31
s32
s33
s34
s35
s36
s37
s38
s39
s40
s41
s42
End